CPXPARAM_Read_DataCheck                          1
Found incumbent of value 0.000000 after 0.00 sec. (0.08 ticks)
Tried aggregator 1 time.
MIP Presolve modified 3 coefficients.
Reduced MIP has 331 rows, 3010 columns, and 15040 nonzeros.
Reduced MIP has 3010 binaries, 0 generals, 0 SOSs, and 0 indicators.
Presolve time = 0.00 sec. (5.44 ticks)
Tried aggregator 1 time.
Reduced MIP has 331 rows, 3010 columns, and 15040 nonzeros.
Reduced MIP has 3010 binaries, 0 generals, 0 SOSs, and 0 indicators.
Presolve time = 0.00 sec. (6.20 ticks)
Probing time = 0.02 sec. (1.86 ticks)
Clique table members: 5481.
MIP emphasis: balance optimality and feasibility.
MIP search method: dynamic search.
Parallel mode: deterministic, using up to 4 threads.
Root relaxation solution time = 0.01 sec. (11.32 ticks)

        Nodes                                         Cuts/
   Node  Left     Objective  IInf  Best Integer    Best Bound    ItCnt     Gap

*     0+    0                            0.0000    18539.0000              --- 
      0     0     9653.3178    11        0.0000     9653.3178      642     --- 
*     0+    0                         4970.0000     9653.3178            94.23%
      0     0     7318.1883   255     4970.0000     Cuts: 182     1827   47.25%
*     0+    0                         5093.0000     7318.1883            43.69%
      0     0     6557.3186   480     5093.0000     Cuts: 182     2876   28.75%
*     0+    0                         5114.0000     6557.3186            28.22%
      0     0        cutoff           5114.0000     5114.0000     4648    0.00%
Elapsed time = 1.09 sec. (628.24 ticks, tree = 0.01 MB, solutions = 4)

GUB cover cuts applied:  2
Clique cuts applied:  424
Cover cuts applied:  7
Mixed integer rounding cuts applied:  43
Zero-half cuts applied:  6

Root node processing (before b&c):
  Real time             =    1.09 sec. (628.49 ticks)
Parallel b&c, 4 threads:
  Real time             =    0.00 sec. (0.00 ticks)
  Sync time (average)   =    0.00 sec.
  Wait time (average)   =    0.00 sec.
                          ------------
Total (root+branch&cut) =    1.09 sec. (628.49 ticks)
